c Reduced graph for p41 generated by Cyril Grelier
p edge 116 900
e 1 2
e 1 3
e 1 4
e 1 5
e 1 6
e 1 7
e 1 10
e 1 11
e 1 12
e 1 15
e 1 18
e 1 19
e 1 22
e 1 27
e 1 31
e 1 33
e 1 34
e 1 35
e 1 50
e 1 51
e 1 64
e 1 79
e 2 3
e 2 4
e 2 7
e 2 8
e 2 9
e 2 10
e 2 11
e 2 15
e 2 16
e 2 17
e 2 18
e 2 19
e 2 22
e 2 27
e 2 31
e 2 40
e 2 41
e 2 55
e 2 56
e 2 70
e 2 82
e 3 4
e 3 7
e 3 10
e 3 11
e 3 13
e 3 14
e 3 15
e 3 18
e 3 19
e 3 22
e 3 25
e 3 26
e 3 27
e 3 31
e 3 53
e 3 54
e 3 69
e 3 80
e 3 92
e 4 7
e 4 10
e 4 11
e 4 15
e 4 18
e 4 19
e 4 20
e 4 21
e 4 22
e 4 27
e 4 31
e 4 32
e 4 61
e 4 62
e 4 63
e 4 78
e 4 90
e 5 6
e 5 8
e 5 12
e 5 13
e 5 20
e 5 23
e 5 28
e 5 33
e 5 34
e 5 35
e 5 38
e 5 44
e 5 46
e 5 50
e 5 51
e 5 57
e 5 64
e 5 73
e 5 79
e 6 9
e 6 12
e 6 14
e 6 21
e 6 24
e 6 29
e 6 30
e 6 33
e 6 34
e 6 35
e 6 39
e 6 45
e 6 47
e 6 50
e 6 51
e 6 52
e 6 64
e 6 79
e 7 10
e 7 11
e 7 15
e 7 18
e 7 19
e 7 22
e 7 23
e 7 24
e 7 27
e 7 31
e 7 36
e 7 37
e 7 66
e 7 67
e 7 68
e 7 102
e 8 9
e 8 13
e 8 16
e 8 17
e 8 20
e 8 23
e 8 28
e 8 38
e 8 40
e 8 41
e 8 44
e 8 46
e 8 55
e 8 56
e 8 57
e 8 70
e 8 73
e 8 82
e 9 14
e 9 16
e 9 17
e 9 21
e 9 24
e 9 29
e 9 30
e 9 39
e 9 40
e 9 41
e 9 45
e 9 47
e 9 52
e 9 55
e 9 56
e 9 70
e 9 82
e 10 11
e 10 15
e 10 18
e 10 19
e 10 22
e 10 27
e 10 28
e 10 29
e 10 31
e 10 42
e 10 43
e 10 72
e 10 83
e 10 84
e 10 106
e 11 15
e 11 18
e 11 19
e 11 22
e 11 27
e 11 30
e 11 31
e 11 48
e 11 49
e 11 74
e 11 75
e 11 88
e 11 89
e 12 17
e 12 26
e 12 33
e 12 34
e 12 35
e 12 37
e 12 43
e 12 49
e 12 50
e 12 51
e 12 59
e 12 60
e 12 64
e 12 77
e 12 79
e 12 85
e 13 14
e 13 20
e 13 23
e 13 25
e 13 26
e 13 28
e 13 38
e 13 44
e 13 46
e 13 53
e 13 54
e 13 57
e 13 69
e 13 73
e 13 80
e 13 92
e 14 21
e 14 24
e 14 25
e 14 26
e 14 29
e 14 30
e 14 39
e 14 45
e 14 47
e 14 52
e 14 53
e 14 54
e 14 69
e 14 80
e 14 92
e 15 18
e 15 19
e 15 22
e 15 27
e 15 31
e 15 38
e 15 39
e 15 81
e 15 93
e 15 94
e 15 95
e 15 103
e 16 17
e 16 25
e 16 32
e 16 36
e 16 40
e 16 41
e 16 42
e 16 48
e 16 55
e 16 56
e 16 58
e 16 65
e 16 70
e 16 71
e 16 76
e 16 82
e 17 26
e 17 37
e 17 40
e 17 41
e 17 43
e 17 49
e 17 55
e 17 56
e 17 59
e 17 60
e 17 70
e 17 77
e 17 82
e 17 85
e 18 19
e 18 22
e 18 27
e 18 31
e 18 44
e 18 45
e 18 58
e 18 59
e 18 86
e 18 97
e 18 112
e 19 22
e 19 27
e 19 31
e 19 46
e 19 47
e 19 60
e 19 87
e 19 98
e 19 109
e 20 21
e 20 23
e 20 28
e 20 32
e 20 38
e 20 44
e 20 46
e 20 57
e 20 61
e 20 62
e 20 63
e 20 73
e 20 78
e 20 90
e 21 24
e 21 29
e 21 30
e 21 32
e 21 39
e 21 45
e 21 47
e 21 52
e 21 61
e 21 62
e 21 63
e 21 78
e 21 90
e 22 27
e 22 31
e 22 52
e 22 65
e 22 91
e 22 100
e 22 101
e 22 113
e 23 24
e 23 28
e 23 36
e 23 37
e 23 38
e 23 44
e 23 46
e 23 57
e 23 66
e 23 67
e 23 68
e 23 73
e 23 102
e 24 29
e 24 30
e 24 36
e 24 37
e 24 39
e 24 45
e 24 47
e 24 52
e 24 66
e 24 67
e 24 68
e 24 102
e 25 26
e 25 32
e 25 36
e 25 42
e 25 48
e 25 53
e 25 54
e 25 58
e 25 65
e 25 69
e 25 71
e 25 76
e 25 80
e 25 92
e 26 37
e 26 43
e 26 49
e 26 53
e 26 54
e 26 59
e 26 60
e 26 69
e 26 77
e 26 80
e 26 85
e 26 92
e 27 31
e 27 57
e 27 71
e 27 96
e 27 104
e 27 105
e 27 114
e 28 29
e 28 38
e 28 42
e 28 43
e 28 44
e 28 46
e 28 57
e 28 72
e 28 73
e 28 83
e 28 84
e 28 106
e 29 30
e 29 39
e 29 42
e 29 43
e 29 45
e 29 47
e 29 52
e 29 72
e 29 83
e 29 84
e 29 106
e 30 39
e 30 45
e 30 47
e 30 48
e 30 49
e 30 52
e 30 74
e 30 75
e 30 88
e 30 89
e 31 76
e 31 77
e 31 99
e 31 110
e 31 115
e 32 36
e 32 42
e 32 48
e 32 58
e 32 61
e 32 62
e 32 63
e 32 65
e 32 71
e 32 76
e 32 78
e 32 90
e 33 34
e 33 35
e 33 50
e 33 51
e 33 53
e 33 61
e 33 64
e 33 66
e 33 79
e 33 81
e 33 86
e 33 91
e 33 107
e 34 35
e 34 40
e 34 50
e 34 51
e 34 54
e 34 62
e 34 64
e 34 67
e 34 74
e 34 79
e 34 99
e 34 108
e 35 41
e 35 50
e 35 51
e 35 63
e 35 64
e 35 68
e 35 72
e 35 75
e 35 79
e 35 87
e 35 96
e 36 37
e 36 42
e 36 48
e 36 58
e 36 65
e 36 66
e 36 67
e 36 68
e 36 71
e 36 76
e 36 102
e 37 43
e 37 49
e 37 59
e 37 60
e 37 66
e 37 67
e 37 68
e 37 77
e 37 85
e 37 102
e 38 39
e 38 44
e 38 46
e 38 57
e 38 73
e 38 81
e 38 93
e 38 94
e 38 95
e 38 103
e 39 45
e 39 47
e 39 52
e 39 81
e 39 93
e 39 94
e 39 95
e 39 103
e 40 41
e 40 54
e 40 55
e 40 56
e 40 62
e 40 67
e 40 70
e 40 74
e 40 82
e 40 99
e 40 108
e 41 55
e 41 56
e 41 63
e 41 68
e 41 70
e 41 72
e 41 75
e 41 82
e 41 87
e 41 96
e 42 43
e 42 48
e 42 58
e 42 65
e 42 71
e 42 72
e 42 76
e 42 83
e 42 84
e 42 106
e 43 49
e 43 59
e 43 60
e 43 72
e 43 77
e 43 83
e 43 84
e 43 85
e 43 106
e 44 45
e 44 46
e 44 57
e 44 58
e 44 59
e 44 73
e 44 86
e 44 97
e 44 112
e 45 47
e 45 52
e 45 58
e 45 59
e 45 86
e 45 97
e 45 112
e 46 47
e 46 57
e 46 60
e 46 73
e 46 87
e 46 98
e 46 109
e 47 52
e 47 60
e 47 87
e 47 98
e 47 109
e 48 49
e 48 58
e 48 65
e 48 71
e 48 74
e 48 75
e 48 76
e 48 88
e 48 89
e 49 59
e 49 60
e 49 74
e 49 75
e 49 77
e 49 85
e 49 88
e 49 89
e 50 51
e 50 56
e 50 64
e 50 79
e 50 83
e 50 89
e 50 94
e 50 101
e 50 104
e 51 64
e 51 79
e 51 84
e 51 95
e 51 97
e 51 105
e 51 110
e 51 111
e 52 65
e 52 91
e 52 100
e 52 101
e 52 113
e 53 54
e 53 61
e 53 66
e 53 69
e 53 80
e 53 81
e 53 86
e 53 91
e 53 92
e 53 107
e 54 62
e 54 67
e 54 69
e 54 74
e 54 80
e 54 92
e 54 99
e 54 108
e 55 56
e 55 69
e 55 70
e 55 78
e 55 82
e 55 88
e 55 93
e 55 98
e 55 100
e 56 70
e 56 82
e 56 83
e 56 89
e 56 94
e 56 101
e 56 104
e 57 71
e 57 73
e 57 96
e 57 104
e 57 105
e 57 114
e 58 59
e 58 65
e 58 71
e 58 76
e 58 86
e 58 97
e 58 112
e 59 60
e 59 77
e 59 85
e 59 86
e 59 97
e 59 112
e 60 77
e 60 85
e 60 87
e 60 98
e 60 109
e 61 62
e 61 63
e 61 66
e 61 78
e 61 81
e 61 86
e 61 90
e 61 91
e 61 107
e 62 63
e 62 67
e 62 74
e 62 78
e 62 90
e 62 99
e 62 108
e 63 68
e 63 72
e 63 75
e 63 78
e 63 87
e 63 90
e 63 96
e 64 70
e 64 79
e 64 80
e 64 90
e 64 103
e 64 109
e 65 71
e 65 76
e 65 91
e 65 100
e 65 101
e 65 113
e 66 67
e 66 68
e 66 81
e 66 86
e 66 91
e 66 102
e 66 107
e 67 68
e 67 74
e 67 99
e 67 102
e 67 108
e 68 72
e 68 75
e 68 87
e 68 96
e 68 102
e 69 78
e 69 80
e 69 88
e 69 92
e 69 93
e 69 98
e 69 100
e 70 80
e 70 82
e 70 90
e 70 103
e 70 109
e 71 76
e 71 96
e 71 104
e 71 105
e 71 114
e 72 75
e 72 83
e 72 84
e 72 87
e 72 96
e 72 106
e 73 85
e 73 107
e 73 108
e 73 111
e 73 116
e 74 75
e 74 88
e 74 89
e 74 99
e 74 108
e 75 87
e 75 88
e 75 89
e 75 96
e 76 77
e 76 99
e 76 110
e 76 115
e 77 85
e 77 99
e 77 110
e 77 115
e 78 88
e 78 90
e 78 93
e 78 98
e 78 100
e 79 82
e 79 92
e 79 112
e 79 115
e 80 90
e 80 92
e 80 103
e 80 109
e 81 86
e 81 91
e 81 93
e 81 94
e 81 95
e 81 103
e 81 107
e 82 92
e 82 112
e 82 115
e 83 84
e 83 89
e 83 94
e 83 101
e 83 104
e 83 106
e 84 95
e 84 97
e 84 105
e 84 106
e 84 110
e 84 111
e 85 107
e 85 108
e 85 111
e 85 116
e 86 91
e 86 97
e 86 107
e 86 112
e 87 96
e 87 98
e 87 109
e 88 89
e 88 93
e 88 98
e 88 100
e 89 94
e 89 101
e 89 104
e 90 103
e 90 109
e 91 100
e 91 101
e 91 107
e 91 113
e 92 112
e 92 115
e 93 94
e 93 95
e 93 98
e 93 100
e 93 103
e 94 95
e 94 101
e 94 103
e 94 104
e 95 97
e 95 103
e 95 105
e 95 110
e 95 111
e 96 104
e 96 105
e 96 114
e 97 105
e 97 110
e 97 111
e 97 112
e 98 100
e 98 109
e 99 108
e 99 110
e 99 115
e 100 101
e 100 113
e 101 104
e 101 113
e 102 106
e 102 113
e 102 114
e 102 116
e 103 109
e 104 105
e 104 114
e 105 110
e 105 111
e 105 114
e 106 113
e 106 114
e 106 116
e 107 108
e 107 111
e 107 116
e 108 111
e 108 116
e 110 111
e 110 115
e 111 116
e 112 115
e 113 114
e 113 116
e 114 116
